p cnf 10 50
-10 4 -6 0
5 2 9 0
-2 1 9 0
-1 8 -10 0
7 5 4 0
7 8 -2 0
10 6 3 0
8 9 3 0
-1 -3 -6 0
8 7 5 0
-4 -3 -2 0
5 -8 -7 0
-4 -9 3 0
4 -2 6 0
-4 -7 10 0
-7 8 -10 0
8 9 -10 0
4 -8 -2 0
-9 -6 -7 0
4 7 -6 0
-6 -3 -9 0
-1 -10 -3 0
2 -10 1 0
7 6 8 0
7 8 -5 0
-5 10 2 0
-2 9 10 0
-3 7 -1 0
4 9 7 0
3 -7 -1 0
-9 3 -7 0
9 -3 -6 0
-5 9 4 0
2 6 -7 0
3 5 9 0
-9 2 -8 0
-5 4 7 0
-4 -6 8 0
-4 -2 -6 0
2 -5 -1 0
-4 -10 5 0
4 -6 -8 0
7 8 4 0
7 4 -1 0
-1 -3 10 0
-1 10 3 0
-6 3 -2 0
-5 2 10 0
5 -1 8 0
-3 9 8 0